n = 10; 

m=14; 

 

 
19	36	54	75	7	5	82	20	31	32
18	1	61	67	55	72	16	12	87	21
85	81	9	52	67	77	45	7	21	26
44	66	31	8	79	42	85	92	89	29
27	7	7	54	31	94	25	8	61	51
24	82	69	82	39	52	85	48	22	57
24	55	58	79	42	98	44	16	13	74
11	49	2	76	17	32	39	9	83	69
51	24	21	57	69	51	50	51	21	19
56	65	59	4	10	12	62	43	49	54
68	37	22	41	92	67	24	87	91	31
88	51	41	71	94	99	11	97	44	77
3	48	44	93	37	82	31	59	78	33
24	55	58	79	42	98	44	16	13	74
 
 
 
 
 



			
		
